
Gurobi 12.0.3 (linux64) logging started Fri Mar 27 15:35:53 2026

Set parameter LogFile to value "/home/solar-wind/WT_Solar_results_bigM100000_thread4/case24_ieee_rts_theta0.15_epsilon0.1_gurobi_seed10000_num_gen38_N_WDR250_load_scaling_factor1_EIFICA_T24_num_Solar5_num_WT10.txt"
Gurobi Optimizer version 12.0.3 build v12.0.3rc0 (linux64 - "Ubuntu 22.04.5 LTS")

CPU model: Intel(R) Xeon(R) Platinum 8378A CPU @ 3.00GHz, instruction set [SSE2|AVX|AVX2|AVX512]
Thread count: 32 physical cores, 64 logical processors, using up to 4 threads

Non-default parameters:
TimeLimit  14400
MIPGap  0.001
Seed  10000
Threads  4

Academic license 2721591 - for non-commercial use only - registered to fa___@mails.neu.edu.cn
Optimize a model with 751308 rows, 2075 columns and 63280408 nonzeros
Model fingerprint: 0x1d8b7805
Model has 912 quadratic objective terms
Coefficient statistics:
  Matrix range     [5e-07, 6e+01]
  Objective range  [2e+01, 6e+01]
  QObjective range [4e-03, 2e-02]
  Bounds range     [0e+00, 0e+00]
  RHS range        [6e-02, 1e+03]
Presolve removed 519410 rows and 0 columns (presolve time = 5s)...
Presolve removed 520284 rows and 0 columns
Presolve time: 6.66s
Presolved: 231024 rows, 2949 columns, 4955958 nonzeros
Presolved model has 912 quadratic objective terms
Elapsed ordering time = 6s
Elapsed ordering time = 21s
Ordering time: 41.76s
Elapsed ordering time = 42s
Elapsed ordering time = 45s
Elapsed ordering time = 52s
Elapsed ordering time = 58s
Elapsed ordering time = 60s
Elapsed ordering time = 66s
Elapsed ordering time = 70s
Elapsed ordering time = 75s
Elapsed ordering time = 77s
Elapsed ordering time = 83s
Elapsed ordering time = 85s
Ordering time: 90.82s

Barrier statistics:
 Dense cols : 981
 AA' NZ     : 3.467e+08
 Factor NZ  : 1.333e+09 (roughly 10.0 GB of memory)
 Factor Ops : 1.832e+13 (roughly 100 seconds per iteration)
 Threads    : 4

                  Objective                Residual
Iter       Primal          Dual         Primal    Dual     Compl     Time
   0   5.84697146e+08 -3.12381885e+08  3.70e+04 9.91e+02  9.91e+05   232s
   1   5.48480251e+08 -2.83722139e+08  3.55e+04 9.50e+02  9.51e+05   232s
   2   5.42457554e+08 -3.60500314e+08  3.52e+04 9.42e+02  9.46e+05   233s
   3   5.00813605e+08 -4.74322009e+08  3.34e+04 8.91e+02  9.14e+05   233s
   4   4.42028511e+08 -5.52018988e+08  3.07e+04 8.16e+02  8.63e+05   233s
   5   3.92806002e+08 -5.97327222e+08  2.84e+04 7.51e+02  8.16e+05   234s
   6   3.45857309e+08 -6.13681172e+08  2.60e+04 6.86e+02  7.46e+05   234s
   7   3.10058031e+08 -6.29134717e+08  2.41e+04 6.34e+02  6.91e+05   234s
   8   2.77534407e+08 -6.98090945e+08  2.24e+04 5.84e+02  6.71e+05   234s
   9   2.44008871e+08 -7.21571711e+08  2.04e+04 5.30e+02  6.11e+05   235s
  10   2.21145991e+08 -7.42067556e+08  1.90e+04 4.92e+02  5.67e+05   235s
  11   1.96173241e+08 -7.62886647e+08  1.75e+04 4.49e+02  5.19e+05   235s
  12   1.74601060e+08 -8.13809067e+08  1.60e+04 4.10e+02  4.99e+05   235s
  13   1.53499073e+08 -8.36801669e+08  1.45e+04 3.70e+02  4.51e+05   235s
  14   1.27681977e+08 -8.67089457e+08  1.25e+04 3.17e+02  3.89e+05   235s
  15   1.14355752e+08 -8.82279271e+08  1.14e+04 2.90e+02  3.56e+05   236s
  16   1.01360960e+08 -8.99982117e+08  1.04e+04 2.61e+02  3.22e+05   236s
  17   8.78935631e+07 -9.26160640e+08  9.21e+03 2.32e+02  2.86e+05   236s
  18   7.71891485e+07 -9.49343827e+08  8.26e+03 2.07e+02  2.56e+05   236s
  19   6.40365868e+07 -9.78709063e+08  7.06e+03 1.76e+02  2.18e+05   236s
  20   5.51930033e+07 -9.96739349e+08  6.21e+03 1.54e+02  1.92e+05   237s
  21   4.53845150e+07 -1.01471243e+09  5.22e+03 1.29e+02  1.61e+05   237s
  22   3.80167335e+07 -1.02762111e+09  4.46e+03 1.09e+02  1.38e+05   237s
  23   3.07080281e+07 -1.03686316e+09  3.66e+03 8.96e+01  1.14e+05   237s
  24   2.10180386e+07 -1.03756906e+09  3.30e+03 6.22e+01  8.04e+04   237s
  25   7.18163857e+06 -9.90723635e+08  2.57e+03 2.08e+01  3.45e+04   237s
  26   6.60334862e+06 -1.01382304e+09  2.38e+03 1.90e+01  3.34e+04   237s
  27   3.26035304e+06 -8.31884102e+08  1.29e+03 8.50e+00  1.72e+04   238s
  28   2.73167800e+06 -7.54487807e+08  1.03e+03 6.86e+00  1.40e+04   238s
  29   2.14880862e+06 -6.55280760e+08  7.46e+02 5.05e+00  1.04e+04   238s
  30   1.70274934e+06 -6.12002036e+08  5.20e+02 3.60e+00  8.20e+03   238s
  31   1.39637966e+06 -5.61673623e+08  3.64e+02 2.59e+00  6.38e+03   238s
  32   1.07407530e+06 -4.49764650e+08  2.08e+02 1.49e+00  3.95e+03   239s
  33   9.45511883e+05 -3.86123083e+08  1.38e+02 9.95e-01  2.87e+03   239s
  34   8.65458503e+05 -3.32271977e+08  9.58e+01 6.86e-01  2.18e+03   239s
  35   8.08728280e+05 -2.84154407e+08  6.54e+01 4.64e-01  1.67e+03   240s
  36   7.81940020e+05 -2.41470123e+08  4.81e+01 3.42e-01  1.33e+03   240s
  37   7.64342011e+05 -2.21702819e+08  3.64e+01 2.56e-01  1.16e+03   241s
  38   7.54689189e+05 -1.94553932e+08  2.89e+01 2.04e-01  9.84e+02   242s
  39   7.50954327e+05 -1.80808926e+08  2.52e+01 1.77e-01  8.99e+02   242s
  40   7.46060791e+05 -1.57230762e+08  1.94e+01 1.37e-01  7.61e+02   243s
  41   7.45270674e+05 -1.51618611e+08  1.81e+01 1.28e-01  7.30e+02   244s
  42   7.44230567e+05 -1.41084057e+08  1.58e+01 1.12e-01  6.73e+02   246s
  43   7.42901889e+05 -1.09558945e+08  1.20e+01 8.45e-02  5.15e+02   247s
  44   7.42095367e+05 -9.73123111e+07  9.89e+00 6.98e-02  4.58e+02   251s
  45   7.41187732e+05 -7.95338366e+07  7.28e+00 5.14e-02  3.66e+02   253s
  46   7.39573926e+05 -5.12434581e+07  4.49e+00 3.17e-02  2.32e+02   255s
  47   7.37645088e+05 -2.90335664e+07  2.40e+00 9.94e-03  1.29e+02   257s
  48   7.35667452e+05 -1.09572084e+07  7.90e-01 2.90e-03  5.00e+01   263s
  49   7.29278012e+05 -1.08950022e+06  5.00e-06 1.44e-05  7.74e+00   303s
  50   6.88601067e+05  3.49519204e+05  6.84e-07 2.55e-06  1.44e+00   346s
  51   6.54831092e+05  5.10451778e+05  6.98e-06 8.47e-07  6.15e-01   391s
  52   6.35497060e+05  5.60576090e+05  2.02e-06 8.20e-08  3.19e-01   441s
  53   6.27669998e+05  6.06333782e+05  1.20e-07 4.86e-09  9.09e-02   518s
  54   6.25466295e+05  6.17281936e+05  2.42e-08 9.84e-10  3.49e-02   596s
  55   6.24710523e+05  6.20667975e+05  5.47e-09 2.19e-10  1.72e-02   674s
  56   6.24303637e+05  6.22532348e+05  5.49e-10 2.79e-11  7.54e-03   753s
  57   6.24125557e+05  6.23393729e+05  4.04e-10 9.99e-12  3.12e-03   835s
  58   6.24052436e+05  6.23748097e+05  3.17e-10 2.64e-12  1.30e-03   919s
  59   6.24015445e+05  6.23927354e+05  1.23e-09 2.79e-12  3.75e-04   997s
  60   6.24008421e+05  6.23960891e+05  2.12e-13 1.07e-11  2.02e-04  1071s
  61   6.24004382e+05  6.23980184e+05  1.58e-10 2.59e-12  1.03e-04  1145s
  62   6.24000889e+05  6.23996790e+05  1.74e-10 1.38e-11  1.75e-05  1223s
  63   6.24000190e+05  6.24000100e+05  2.62e-08 4.81e-11  3.84e-07  1314s
  64   6.24000175e+05  6.24000172e+05  2.41e-08 1.03e-10  1.18e-08  1391s
  65   6.24000175e+05  6.24000172e+05  7.58e-07 3.66e-10  1.17e-08  1467s

Barrier solved model in 65 iterations and 1467.09 seconds (1902.97 work units)
Optimal objective 6.24000175e+05

